TCS_Benchmarks/redos_fix/snort1_output_distinct_2445_2444_0_0.smt2
(set-logic QF_S)
(declare-const x String)
(assert (str.in.re x (re.inter (re.* (re.comp  (re.union  (str.to_re "\u{0A}")  (str.to_re "\u{0D}"))) )  (re.++ (re.* (re.comp  (re.union  (str.to_re "\u{0A}")  (str.to_re "\u{0D}"))) ) (re.++  (re.++  (re.union  (str.to.re "\u{76}")  (str.to.re "\u{56}")) (re.++  (str.to.re "\u{32}") (re.++  (str.to.re "\u{2e}")  (str.to.re "\u{30}")))) (re.* (re.comp  (re.union  (str.to_re "\u{0A}")  (str.to_re "\u{0D}"))) ))) (re.* (re.comp  (re.union  (str.to_re "\u{0A}")  (str.to_re "\u{0D}"))) ) )))
(check-sat)
(get-model)