TCS_Benchmarks/redos_fix/snort1_output_distinct_2445_2444_0_0.txt
[^\n\r]*
([^\n\r]*)([vV]2\.0)([^\n\r]*)
[^\n\r]*